21° run output:
{
    "Function": "kroA750.tsp",
    "Problem dimension": [
        716,
        163,
        223,
        454,
        687,
        423,
        581,
        528,
        100,
        341,
        657,
        714,
        460,
        718,
        705,
        563,
        83,
        306,
        108,
        394,
        730,
        733,
        219,
        94,
        349,
        592,
        136,
        721,
        407,
        580,
        484,
        5,
        217,
        406,
        462,
        425,
        377,
        313,
        358,
        60,
        682,
        506,
        58,
        578,
        165,
        82,
        98,
        278,
        89,
        123,
        443,
        594,
        700,
        14,
        464,
        608,
        147,
        346,
        474,
        701,
        172,
        12,
        612,
        114,
        375,
        599,
        74,
        337,
        577,
        401,
        111,
        392,
        23,
        402,
        678,
        667,
        487,
        327,
        361,
        47,
        695,
        743,
        176,
        168,
        621,
        184,
        142,
        253,
        309,
        134,
        696,
        388,
        666,
        629,
        536,
        320,
        405,
        496,
        558,
        382,
        67,
        697,
        397,
        229,
        564,
        691,
        470,
        99,
        537,
        452,
        553,
        598,
        652,
        732,
        103,
        130,
        531,
        202,
        152,
        481,
        562,
        332,
        110,
        90,
        543,
        672,
        403,
        686,
        35,
        186,
        304,
        238,
        495,
        429,
        27,
        439,
        107,
        221,
        603,
        479,
        331,
        393,
        440,
        519,
        73,
        131,
        277,
        302,
        635,
        590,
        6,
        379,
        469,
        424,
        316,
        688,
        41,
        43,
        351,
        505,
        53,
        631,
        567,
        518,
        364,
        418,
        369,
        192,
        492,
        271,
        510,
        745,
        52,
        171,
        359,
        476,
        44,
        232,
        255,
        715,
        225,
        370,
        48,
        116,
        619,
        189,
        245,
        661,
        243,
        520,
        585,
        350,
        156,
        490,
        616,
        183,
        95,
        644,
        76,
        444,
        617,
        285,
        241,
        334,
        281,
        187,
        275,
        419,
        511,
        273,
        62,
        412,
        391,
        182,
        138,
        220,
        118,
        649,
        477,
        307,
        72,
        610,
        169,
        132,
        390,
        335,
        530,
        214,
        693,
        428,
        61,
        254,
        728,
        660,
        647,
        153,
        384,
        504,
        299,
        7,
        638,
        325,
        45,
        684,
        726,
        432,
        8,
        542,
        13,
        328,
        86,
        224,
        468,
        664,
        410,
        589,
        591,
        38,
        129,
        604,
        235,
        648,
        343,
        371,
        494,
        709,
        600,
        26,
        179,
        36,
        707,
        79,
        355,
        473,
        588,
        208,
        228,
        466,
        605,
        270,
        488,
        538,
        233,
        117,
        280,
        463,
        561,
        514,
        741,
        298,
        517,
        63,
        720,
        161,
        746,
        101,
        515,
        613,
        126,
        624,
        467,
        140,
        209,
        30,
        398,
        623,
        655,
        595,
        526,
        609,
        57,
        21,
        93,
        40,
        491,
        747,
        96,
        493,
        18,
        614,
        413,
        11,
        135,
        42,
        305,
        586,
        357,
        729,
        485,
        321,
        249,
        512,
        181,
        4,
        489,
        675,
        80,
        673,
        314,
        380,
        199,
        288,
        650,
        708,
        740,
        190,
        568,
        91,
        363,
        414,
        570,
        456,
        287,
        713,
        430,
        323,
        141,
        685,
        680,
        535,
        260,
        25,
        521,
        174,
        622,
        455,
        448,
        497,
        690,
        10,
        574,
        712,
        265,
        342,
        719,
        127,
        420,
        579,
        85,
        164,
        625,
        453,
        81,
        151,
        368,
        71,
        37,
        366,
        303,
        572,
        659,
        15,
        583,
        717,
        551,
        75,
        735,
        197,
        606,
        234,
        312,
        544,
        679,
        19,
        150,
        362,
        32,
        387,
        527,
        643,
        215,
        353,
        749,
        213,
        653,
        330,
        374,
        434,
        92,
        198,
        289,
        9,
        333,
        627,
        352,
        188,
        340,
        404,
        676,
        640,
        671,
        318,
        548,
        34,
        417,
        149,
        457,
        582,
        656,
        196,
        748,
        203,
        658,
        651,
        601,
        524,
        378,
        354,
        159,
        268,
        566,
        426,
        338,
        269,
        422,
        711,
        360,
        49,
        146,
        125,
        324,
        509,
        157,
        326,
        24,
        408,
        372,
        529,
        436,
        409,
        442,
        465,
        539,
        731,
        445,
        319,
        639,
        252,
        385,
        155,
        632,
        694,
        259,
        499,
        317,
        395,
        415,
        207,
        516,
        683,
        381,
        642,
        322,
        293,
        216,
        575,
        65,
        634,
        244,
        450,
        596,
        177,
        550,
        698,
        665,
        459,
        738,
        438,
        274,
        339,
        1,
        175,
        162,
        211,
        525,
        133,
        421,
        557,
        446,
        486,
        654,
        744,
        205,
        121,
        258,
        119,
        154,
        478,
        399,
        670,
        416,
        292,
        291,
        22,
        534,
        645,
        257,
        261,
        447,
        286,
        503,
        628,
        200,
        206,
        139,
        193,
        547,
        29,
        431,
        248,
        0,
        144,
        115,
        329,
        435,
        396,
        734,
        113,
        210,
        246,
        301,
        227,
        725,
        400,
        296,
        618,
        158,
        239,
        559,
        51,
        263,
        315,
        502,
        433,
        282,
        231,
        663,
        194,
        727,
        28,
        56,
        556,
        483,
        552,
        2,
        573,
        283,
        677,
        615,
        344,
        498,
        178,
        451,
        212,
        122,
        347,
        148,
        264,
        706,
        222,
        336,
        16,
        195,
        507,
        383,
        737,
        607,
        70,
        166,
        736,
        300,
        699,
        262,
        290,
        560,
        722,
        102,
        584,
        669,
        267,
        256,
        373,
        739,
        185,
        475,
        724,
        636,
        533,
        522,
        120,
        237,
        513,
        145,
        546,
        97,
        78,
        88,
        191,
        310,
        482,
        236,
        704,
        472,
        180,
        637,
        500,
        294,
        389,
        240,
        480,
        104,
        549,
        297,
        170,
        611,
        276,
        501,
        109,
        311,
        441,
        641,
        668,
        3,
        251,
        69,
        540,
        633,
        626,
        50,
        620,
        33,
        523,
        39,
        279,
        376,
        84,
        66,
        106,
        46,
        545,
        458,
        565,
        167,
        31,
        597,
        160,
        471,
        554,
        437,
        427,
        587,
        128,
        20,
        250,
        59,
        449,
        272,
        689,
        662,
        703,
        137,
        230,
        593,
        508,
        173,
        242,
        64,
        569,
        674,
        266,
        345,
        54,
        247,
        124,
        681,
        295,
        742,
        17,
        112,
        143,
        77,
        201,
        411,
        284,
        576,
        630,
        571,
        723,
        702,
        218,
        348,
        308,
        365,
        710,
        226,
        87,
        55,
        367,
        356,
        541,
        692,
        105,
        68,
        555,
        602,
        646,
        204,
        386,
        461,
        532
    ],
    "Global Optimum": 0,
    "Algorithm": "Genetic algorithm",
    "Parameters": {
        "population": 30,
        "offspring": 30,
        "mutation probability": 0.0013333333333333333,
        "crossover probability": 0.9
    },
    "Fitness": 1036195,
    "Solution": [
        716,
        163,
        223,
        454,
        687,
        423,
        581,
        528,
        100,
        341,
        657,
        714,
        460,
        718,
        705,
        563,
        83,
        306,
        108,
        394,
        730,
        733,
        219,
        94,
        349,
        592,
        136,
        721,
        407,
        580,
        484,
        5,
        217,
        406,
        462,
        425,
        377,
        313,
        358,
        60,
        682,
        506,
        58,
        578,
        165,
        82,
        98,
        278,
        89,
        123,
        443,
        594,
        700,
        14,
        464,
        608,
        147,
        346,
        474,
        701,
        172,
        12,
        612,
        114,
        375,
        599,
        74,
        337,
        577,
        401,
        111,
        392,
        23,
        402,
        678,
        667,
        487,
        327,
        361,
        47,
        695,
        743,
        176,
        168,
        621,
        184,
        142,
        253,
        309,
        134,
        696,
        388,
        666,
        629,
        536,
        320,
        405,
        496,
        558,
        382,
        67,
        697,
        397,
        229,
        564,
        691,
        470,
        99,
        537,
        452,
        553,
        598,
        652,
        732,
        103,
        130,
        531,
        202,
        152,
        481,
        562,
        332,
        110,
        90,
        543,
        672,
        403,
        686,
        35,
        186,
        304,
        238,
        495,
        429,
        27,
        439,
        107,
        221,
        603,
        479,
        331,
        393,
        440,
        519,
        73,
        131,
        277,
        302,
        635,
        590,
        6,
        379,
        469,
        424,
        316,
        688,
        41,
        43,
        351,
        505,
        53,
        631,
        567,
        518,
        364,
        418,
        369,
        192,
        492,
        271,
        510,
        745,
        52,
        171,
        359,
        476,
        44,
        232,
        255,
        715,
        225,
        370,
        48,
        116,
        619,
        189,
        245,
        661,
        243,
        520,
        585,
        350,
        156,
        490,
        616,
        183,
        95,
        644,
        76,
        444,
        617,
        285,
        241,
        334,
        281,
        187,
        275,
        419,
        511,
        273,
        62,
        412,
        391,
        182,
        138,
        220,
        118,
        649,
        477,
        307,
        72,
        610,
        169,
        132,
        390,
        335,
        530,
        214,
        693,
        428,
        61,
        254,
        728,
        660,
        647,
        153,
        384,
        504,
        299,
        7,
        638,
        325,
        45,
        684,
        726,
        432,
        8,
        542,
        13,
        328,
        86,
        224,
        468,
        664,
        410,
        589,
        591,
        38,
        129,
        604,
        235,
        648,
        343,
        371,
        494,
        709,
        600,
        26,
        179,
        36,
        707,
        79,
        355,
        473,
        588,
        208,
        228,
        466,
        605,
        270,
        488,
        538,
        233,
        117,
        280,
        463,
        561,
        514,
        741,
        298,
        517,
        63,
        720,
        161,
        746,
        101,
        515,
        613,
        126,
        624,
        467,
        140,
        209,
        30,
        398,
        623,
        655,
        595,
        526,
        609,
        57,
        21,
        93,
        40,
        491,
        747,
        96,
        493,
        18,
        614,
        413,
        11,
        135,
        42,
        305,
        586,
        357,
        729,
        485,
        321,
        249,
        512,
        181,
        4,
        489,
        675,
        80,
        673,
        314,
        380,
        199,
        288,
        650,
        708,
        740,
        190,
        568,
        91,
        363,
        414,
        570,
        456,
        287,
        713,
        430,
        323,
        141,
        685,
        680,
        535,
        260,
        25,
        521,
        174,
        622,
        455,
        448,
        497,
        690,
        10,
        574,
        712,
        265,
        342,
        719,
        127,
        420,
        579,
        85,
        164,
        625,
        453,
        81,
        151,
        368,
        71,
        37,
        366,
        303,
        572,
        659,
        15,
        583,
        717,
        551,
        75,
        735,
        197,
        606,
        234,
        312,
        544,
        679,
        19,
        150,
        362,
        32,
        387,
        527,
        643,
        215,
        353,
        749,
        213,
        653,
        330,
        374,
        434,
        92,
        198,
        289,
        9,
        333,
        627,
        352,
        188,
        340,
        404,
        676,
        640,
        671,
        318,
        548,
        34,
        417,
        149,
        457,
        582,
        656,
        196,
        748,
        203,
        658,
        651,
        601,
        524,
        378,
        354,
        159,
        268,
        566,
        426,
        338,
        269,
        422,
        711,
        360,
        49,
        146,
        125,
        324,
        509,
        157,
        326,
        24,
        408,
        372,
        529,
        436,
        409,
        442,
        465,
        539,
        731,
        445,
        319,
        639,
        252,
        385,
        155,
        632,
        694,
        259,
        499,
        317,
        395,
        415,
        207,
        516,
        683,
        381,
        642,
        322,
        293,
        216,
        575,
        65,
        634,
        244,
        450,
        596,
        177,
        550,
        698,
        665,
        459,
        738,
        438,
        274,
        339,
        1,
        175,
        162,
        211,
        525,
        133,
        421,
        557,
        446,
        486,
        654,
        744,
        205,
        121,
        258,
        119,
        154,
        478,
        399,
        670,
        416,
        292,
        291,
        22,
        534,
        645,
        257,
        261,
        447,
        286,
        503,
        628,
        200,
        206,
        139,
        193,
        547,
        29,
        431,
        248,
        0,
        144,
        115,
        329,
        435,
        396,
        734,
        113,
        210,
        246,
        301,
        227,
        725,
        400,
        296,
        618,
        158,
        239,
        559,
        51,
        263,
        315,
        502,
        433,
        282,
        231,
        663,
        194,
        727,
        28,
        56,
        556,
        483,
        552,
        2,
        573,
        283,
        677,
        615,
        344,
        498,
        178,
        451,
        212,
        122,
        347,
        148,
        264,
        706,
        222,
        336,
        16,
        195,
        507,
        383,
        737,
        607,
        70,
        166,
        736,
        300,
        699,
        262,
        290,
        560,
        722,
        102,
        584,
        669,
        267,
        256,
        373,
        739,
        185,
        475,
        724,
        636,
        533,
        522,
        120,
        237,
        513,
        145,
        546,
        97,
        78,
        88,
        191,
        310,
        482,
        236,
        704,
        472,
        180,
        637,
        500,
        294,
        389,
        240,
        480,
        104,
        549,
        297,
        170,
        611,
        276,
        501,
        109,
        311,
        441,
        641,
        668,
        3,
        251,
        69,
        540,
        633,
        626,
        50,
        620,
        33,
        523,
        39,
        279,
        376,
        84,
        66,
        106,
        46,
        545,
        458,
        565,
        167,
        31,
        597,
        160,
        471,
        554,
        437,
        427,
        587,
        128,
        20,
        250,
        59,
        449,
        272,
        689,
        662,
        703,
        137,
        230,
        593,
        508,
        173,
        242,
        64,
        569,
        674,
        266,
        345,
        54,
        247,
        124,
        681,
        295,
        742,
        17,
        112,
        143,
        77,
        201,
        411,
        284,
        576,
        630,
        571,
        723,
        702,
        218,
        348,
        308,
        365,
        710,
        226,
        87,
        55,
        367,
        356,
        541,
        692,
        105,
        68,
        555,
        602,
        646,
        204,
        386,
        461,
        532
    ],
    "Nb of functions evaluations": 50010,
    "Computational time in seconds": 797.9961361885071,
    "Stopping criterion in evaluations": 50000
}